Route #1: 1 30 54 42 22 37 48 6 5 50 1
Route #2: 1 10 29 28 19 55 44 2 49 1
Route #3: 1 7 33 23 57 11 18 32 1
Route #4: 1 20 35 15 14 45 17 43 8 1
Route #5: 1 38 12 21 3 24 1
Route #6: 1 53 25 46 36 34 1
Route #7: 1 9 16 52 26 27 40 31 1
Route #8: 1 47 4 41 51 56 39 1
Route #9: 1 13 1
cost: 1793
